WARNING: for repeatability, setting FPU to use double precision
============================[ Problem Statistics ]=============================
|                                                                             |
|  Number of variables:            50                                         |
|  Number of clauses:             218                                         |
|  Parse time:                   0.00 s                                       |
|                                                                             |
============================[ Search Statistics ]==============================
| Conflicts |          ORIGINAL         |          LEARNT          | Progress |
|           |    Vars  Clauses Literals |    Limit  Clauses Lit/Cl |          |
===============================================================================
===============================================================================
restarts              : 1
conflicts             : 52             (35837 /sec)
decisions             : 70             (0.00 % random) (48243 /sec)
propagations          : 742            (511371 /sec)
conflict literals     : 197            (21.51 % deleted)
Memory used           : 20.00 MB
CPU time              : 0.001451 s

SATISFIABLE
